40
1 0 14
2 0 1
2 1 9
3 0 3
3 1 4
3 2 18
4 0 7
4 1 2
4 2 4
4 3 12
5 0 5
5 1 12
5 2 5
5 3 7
5 4 1
6 0 6
6 1 12
6 2 13
6 3 1
6 4 20
7 0 14
7 2 7
7 3 19
7 4 12
7 5 3
7 6 20
8 0 13
8 1 7
8 2 1
8 3 20
8 4 12
8 5 19
8 6 19
8 7 16
9 0 3
9 1 4
9 3 3
9 4 13
9 5 17
9 6 18
9 7 1
9 8 10
10 0 16
10 1 6
10 2 4
10 3 7
10 4 9
10 5 16
10 6 3
10 7 12
10 8 10
10 9 3
11 0 2
11 1 16
11 2 1
11 3 15
11 4 16
11 5 10
11 6 5
11 7 2
11 8 13
11 9 2
11 10 9
12 0 12
12 1 5
12 2 10
12 3 20
12 4 15
12 5 5
12 6 19
12 7 1
12 8 17
12 9 13
12 10 14
12 11 2
13 0 2
13 2 2
13 3 19
13 4 15
13 5 14
13 6 9
13 7 19
13 9 1
13 10 8
13 11 13
13 12 6
14 0 9
14 1 9
14 3 18
14 4 12
14 5 19
14 6 14
14 7 13
14 8 18
14 9 19
14 10 3
14 11 11
14 12 19
14 13 9
15 0 7
15 1 20
15 2 18
15 3 1
15 4 18
15 5 5
15 6 5
15 7 10
15 9 19
15 10 8
15 11 10
15 12 12
15 13 8
15 14 16
16 0 17
16 1 1
16 2 5
16 3 18
16 4 9
16 5 8
16 6 5
16 7 2
16 8 13
16 10 1
16 11 1
16 12 17
16 13 12
16 14 14
16 15 9
17 0 16
17 1 9
17 3 5
17 4 16
17 5 19
17 6 4
17 9 14
17 10 19
17 11 1
17 12 12
17 13 10
17 14 10
17 15 1
17 16 2
18 0 2
18 2 6
18 3 3
18 4 18
18 5 12
18 8 3
18 9 11
18 10 17
18 11 4
18 12 19
18 14 15
18 15 4
18 17 16
19 0 20
19 1 20
19 2 1
19 3 12
19 4 3
19 5 10
19 6 19
19 7 6
19 8 14
19 9 4
19 10 8
19 11 12
19 13 19
19 14 3
19 15 18
19 17 3
19 18 15
20 0 20
20 1 4
20 2 14
20 3 11
20 4 10
20 5 11
20 7 13
20 8 11
20 9 15
20 12 6
20 13 6
20 14 13
20 16 19
20 17 16
20 18 3
20 19 10
21 0 13
21 1 1
21 3 13
21 4 10
21 6 6
21 7 5
21 8 1
21 9 20
21 10 6
21 11 16
21 12 14
21 13 10
21 14 16
21 17 4
21 18 8
21 19 16
21 20 3
22 0 11
22 1 19
22 2 19
22 4 13
22 5 16
22 6 8
22 7 8
22 10 10
22 11 17
22 12 9
22 13 4
22 14 15
22 15 2
22 16 12
22 17 16
22 18 18
22 19 6
22 20 19
22 21 15
23 0 4
23 1 19
23 2 13
23 3 12
23 4 11
23 5 11
23 6 18
23 7 20
23 8 8
23 11 2
23 12 5
23 13 17
23 14 7
23 15 16
23 16 10
23 17 4
23 18 11
23 19 19
23 21 10
23 22 12
24 0 2
24 1 18
24 2 10
24 3 10
24 4 4
24 5 13
24 6 11
24 7 16
24 8 8
24 9 6
24 10 4
24 11 6
24 12 4
24 13 15
24 14 16
24 15 15
24 16 18
24 17 18
24 18 9
24 19 7
24 20 5
24 21 11
24 22 7
24 23 10
25 0 8
25 1 1
25 2 19
25 3 15
25 4 18
25 5 2
25 6 1
25 7 17
25 8 10
25 10 17
25 11 18
25 13 5
25 14 14
25 15 12
25 16 16
25 17 11
25 18 3
25 19 18
25 20 19
25 21 20
25 22 3
25 23 1
26 0 14
26 1 11
26 2 2
26 3 4
26 4 16
26 5 20
26 6 8
26 7 12
26 8 11
26 9 2
26 10 5
26 11 1
26 12 15
26 13 6
26 14 12
26 15 18
26 16 5
26 17 3
26 20 13
26 21 8
26 22 17
26 23 4
26 24 10
26 25 7
27 0 11
27 1 1
27 2 7
27 3 16
27 4 8
27 5 12
27 6 3
27 7 12
27 8 12
27 9 15
27 10 19
27 11 9
27 12 18
27 13 17
27 14 18
27 15 14
27 16 4
27 17 2
27 18 11
27 19 2
27 20 9
27 21 5
27 22 10
27 23 9
27 24 13
27 25 2
27 26 16
28 0 5
28 1 17
28 2 14
28 4 16
28 5 4
28 6 9
28 7 2
28 8 2
28 9 2
28 10 2
28 11 12
28 12 14
28 13 14
28 14 9
28 15 5
28 17 19
28 18 11
28 19 6
28 20 19
28 21 14
28 22 9
28 23 20
28 24 4
28 25 10
28 26 20
28 27 11
29 0 11
29 1 14
29 2 5
29 4 10
29 5 10
29 6 11
29 7 8
29 8 20
29 9 13
29 11 4
29 12 1
29 13 2
29 14 14
29 15 9
29 16 2
29 17 12
29 18 3
29 19 5
29 20 18
29 21 20
29 22 7
29 23 10
29 24 11
29 25 5
29 26 10
29 27 2
29 28 3
30 0 5
30 2 16
30 3 11
30 4 12
30 5 2
30 6 11
30 7 3
30 8 19
30 9 15
30 11 5
30 12 1
30 13 2
30 14 5
30 16 8
30 17 19
30 19 14
30 20 20
30 21 14
30 22 20
30 23 4
30 24 14
30 25 15
30 26 15
30 27 11
30 29 16
31 0 18
31 1 14
31 2 11
31 3 6
31 4 11
31 5 20
31 6 4
31 7 5
31 8 8
31 9 15
31 11 8
31 12 20
31 13 9
31 14 5
31 15 13
31 16 11
31 17 20
31 18 17
31 19 1
31 20 6
31 21 6
31 22 17
31 23 5
31 24 8
31 25 1
31 26 6
31 28 12
31 29 19
31 30 15
32 2 5
32 3 11
32 4 19
32 5 18
32 6 12
32 8 16
32 9 13
32 10 19
32 11 11
32 12 10
32 13 20
32 14 12
32 15 7
32 16 1
32 17 13
32 18 1
32 19 17
32 20 9
32 21 11
32 22 6
32 23 1
32 24 13
32 25 4
32 26 11
32 27 1
32 28 20
32 29 13
32 30 15
32 31 18
33 0 17
33 1 8
33 2 15
33 3 19
33 4 15
33 5 2
33 6 1
33 7 1
33 8 6
33 9 10
33 10 2
33 11 12
33 12 10
33 13 6
33 14 11
33 15 10
33 17 4
33 18 3
33 19 3
33 20 10
33 23 15
33 25 14
33 27 14
33 28 1
33 29 8
33 30 6
33 31 10
34 0 11
34 3 15
34 4 2
34 5 14
34 6 14
34 7 2
34 8 5
34 9 10
34 10 8
34 11 13
34 12 16
34 14 15
34 15 18
34 16 15
34 17 13
34 18 20
34 19 8
34 20 6
34 21 19
34 22 10
34 24 12
34 25 3
34 26 9
34 27 10
34 29 7
34 30 6
34 31 11
34 32 10
34 33 5
35 0 8
35 1 4
35 2 10
35 3 14
35 4 8
35 5 11
35 6 3
35 7 19
35 8 4
35 10 4
35 11 10
35 12 13
35 13 16
35 14 13
35 15 10
35 16 9
35 17 17
35 18 13
35 19 18
35 21 19
35 22 8
35 23 10
35 24 14
35 25 15
35 26 14
35 27 11
35 29 1
35 30 6
35 31 14
35 32 14
35 33 20
35 34 13
36 0 7
36 1 12
36 2 6
36 3 4
36 4 4
36 5 6
36 6 14
36 7 7
36 8 19
36 9 19
36 10 2
36 11 20
36 12 15
36 13 6
36 14 17
36 15 4
36 16 11
36 17 17
36 19 11
36 21 11
36 22 10
36 23 11
36 24 18
36 25 20
36 27 11
36 28 7
36 29 2
36 30 6
36 31 20
36 33 6
36 34 14
36 35 1
37 0 15
37 1 10
37 4 14
37 5 2
37 6 5
37 7 2
37 8 12
37 9 1
37 10 11
37 11 11
37 12 8
37 13 19
37 14 10
37 15 4
37 16 17
37 18 15
37 19 12
37 20 12
37 21 17
37 22 20
37 23 12
37 24 1
37 25 4
37 26 6
37 27 8
37 28 18
37 29 5
37 31 19
37 33 17
37 34 12
37 35 3
37 36 11
38 1 2
38 2 14
38 4 13
38 5 18
38 6 10
38 7 4
38 9 20
38 10 9
38 11 14
38 12 8
38 13 1
38 14 10
38 15 3
38 16 1
38 18 6
38 19 16
38 20 13
38 21 18
38 22 8
38 23 5
38 24 2
38 25 4
38 26 17
38 27 2
38 28 7
38 29 14
38 30 1
38 31 16
38 32 9
38 33 7
38 34 1
38 35 1
38 36 14
38 37 13
39 0 18
39 1 9
39 2 16
39 3 14
39 4 17
39 5 20
39 7 17
39 8 10
39 9 12
39 10 13
39 11 17
39 12 12
39 13 19
39 14 10
39 15 10
39 16 15
39 17 4
39 18 15
39 19 5
39 20 18
39 21 14
39 22 13
39 23 13
39 25 9
39 26 11
39 27 13
39 28 1
39 29 14
39 30 7
39 31 20
39 32 6
39 33 16
39 35 4
39 36 15
39 37 18
39 38 4
